&control
	calculation= 'vc-relax',
	restart_mode= 'from_scratch',
	pseudo_dir = '<path-to-ONCV-SG15-PBE-Pseudopotentials>'
	outdir= './',
	etot_conv_thr= 1.0d-4,
	forc_conv_thr= 1.0d-3,
	tstress= .true.,
	tprnfor= .true., 
/

&system
	ibrav= 0, nat= 48, ntyp= 3, ecutwfc= 160.0, ecutrho= 800.0, celldm(1)= 9.37304158,
	input_dft= 'vdW-DF-cx', 
	occupations = 'smearing'
	degauss = 0.0002
	smearing = 'gaussian'
/
&electrons
	conv_thr= 1.0d-8, 
/
&ions
/
&cell
/
ATOMIC_SPECIES
F  18.9984032 F_ONCV_PBE-1.0.upf
C  12.0107    C_ONCV_PBE-1.0.upf
H  1.00794    H_ONCV_PBE-1.0.upf

ATOMIC_POSITIONS (crystal)
C     0.473659990   0.498499090   0.860876018
C     0.554891507   0.379343277   0.765900181
C     0.461004093   0.387413693   0.605690321
C     0.548660842   0.513419988   0.522438347
F     0.448464998   0.254170738   0.814777843
F     0.837127319   0.360162178   0.781011140
F     0.430169831   0.632266150   0.577186588
F     0.829721955   0.533580209   0.548627447
H     0.566587024   0.592447282   0.823318191
H     0.253984090   0.511381493   0.844796059
H     0.536840402   0.294728274   0.555905550
H     0.239886803   0.382777546   0.595473424
C     0.473674110  -0.498509350   1.360872656
C     0.554893151  -0.379338435   1.265896888
C     0.460980183  -0.387426448   1.105697879
C     0.548662650  -0.513415928   1.022435740
F     0.448465620  -0.254170917   1.314777873
F     0.837127338  -0.360162614   1.281012206
F     0.430168674  -0.632265964   1.077186768
F     0.829723924  -0.533580904   1.048627913
H     0.566580064  -0.592440822   1.323320884
H     0.253977764  -0.511381515   1.344795953
H     0.536848749  -0.294719721   1.055900791
H     0.239898976  -0.382777298   1.095473343
C     0.973661019   0.998499299   0.860875906
C     1.054891232   0.879343357   0.765900338
C     0.961005476   0.887413238   0.605690023
C     1.048660596   1.013420060   0.522438419
F     0.948465019   0.754170704   0.814777820
F     1.337127265   0.860162190   0.781011100
F     0.930169844   1.132266200   0.577186594
F     1.329721897   1.033580173   0.548627428
H     1.066586768   1.092447078   0.823318278
H     0.753983577   1.011381506   0.844796040
H     1.036840042   0.794728617   0.555905744
H     0.739886071   0.882777558   0.595473424
C     0.973675096   0.001490413   1.360872537
C     1.054892909   0.120661518   1.265897011
C     0.960981309   0.112573902   1.105697649
C     1.048662416  -0.013415976   1.022435792
F     0.948465635   0.245829112   1.314777852
F     1.337127287   0.139837372   1.281012176
F     0.930168685  -0.132266010   1.077186780
F     1.329723878  -0.033580874   1.048627893
H     1.066579803  -0.092440612   1.323320971
H     0.753977276  -0.011381526   1.344795936
H     1.036848462   0.205280008   1.055900944
H     0.739898379   0.117222691   1.095473341
K_POINTS automatic
3 1 2 0 0 0

CELL_PARAMETERS (alat=  9.37304158)
 0.998026269  0.000004734  -0.013893833
 0.000009261  1.956757114  -0.000006827
-0.117999199 -0.000006751   1.878825464

