&control
	calculation= 'vc-relax',
	restart_mode= 'from_scratch',
	pseudo_dir = '<path-to-ONCV-SG15-PBE-Pseudopotentials>'
	outdir= './',
	etot_conv_thr= 1.0d-4,
	forc_conv_thr= 1.0d-3,
	tstress= .true.,
	tprnfor= .true., 
/

&system
	ibrav= 0, nat= 48, ntyp= 3, ecutwfc= 160.0, ecutrho= 800.0, celldm(1)= 9.37304158,
	input_dft= 'vdW-DF-cx', 
	occupations = 'smearing'
	degauss = 0.0002
	smearing = 'gaussian'
/
&electrons
	conv_thr= 1.0d-8, 
/
&ions
/
&cell
/
ATOMIC_SPECIES
F  18.9984032 F_ONCV_PBE-1.0.upf
C  12.0107    C_ONCV_PBE-1.0.upf
H  1.00794    H_ONCV_PBE-1.0.upf

ATOMIC_POSITIONS (crystal)
C        0.475374349   0.505242538   0.179273088
C        0.552987037   0.622182385   0.282788574
C        0.456187079   0.602377584   0.434944599
C        0.571434727   0.482992834   0.526313140
F        0.447850916   0.753512041   0.238255655
F        0.822849955   0.643557152   0.282176938
F        0.510330185   0.350754383   0.468066644
F        0.844347867   0.491153651   0.524228385
H        0.543894832   0.403682317   0.221354424
H        0.263202347   0.501800606   0.177860832
H        0.488295588   0.703511639   0.489449673
H        0.247082958   0.584318696   0.429591619
C        0.475371217   1.494763374  -0.320728631
C        0.552993202   1.377813161  -0.217208383
C        0.456194074   1.397618131  -0.065055987
C        0.571432093   1.517004429   0.026312393
F        0.447860121   1.246484523  -0.261743877
F        0.822853917   1.356444891  -0.217822304
F        0.510325978   1.649244728  -0.031933565
F        0.844347778   1.508849492   0.024228027
H        0.543891176   1.596313797  -0.278646731
H        0.263207978   1.498195798  -0.322138401
H        0.488301578   1.296485193  -0.010549139
H        0.247083428   1.415676499  -0.070408478
C        0.967249763   0.994446925   0.820829605
C        1.046311808   0.877768083   0.717199721
C        0.949096773   0.897558518   0.565128047
C        1.064381112   1.017008600   0.473552345
F        0.943127736   0.746005412   0.761864551
F        1.316233389   0.856927520   0.717539799
F        1.004847290   1.149449417   0.531867004
F        1.337247679   1.008386426   0.474887694
H        1.033480754   1.096500354   0.778724146
H        0.755029655   0.996859339   0.822751596
H        0.981253568   0.796333005   0.510751111
H        0.739885591   0.915366306   0.570600603
C        0.967251586   0.005555647   1.320830390
C        1.046313069   0.122233898   1.217198542
C        0.949097166   0.102443181   1.065128480
C        1.064379997  -0.017006319   0.973552384
F        0.943131604   0.253996343   1.261864387
F        1.316235215   0.143074065   1.217538052
F        1.004848558  -0.149447753   1.031867674
F        1.337246353  -0.008382550   0.974887058
H        1.033486139  -0.096498601   1.278724379
H        0.755031998   0.003141115   1.322751029
H        0.981248922   0.203668620   1.010750274
H        0.739883893   0.084632611   1.070602625
K_POINTS automatic
3 1 2 0 0 0

CELL_PARAMETERS (alat=  9.37304158)
   1.038981643  -0.000003988   0.026719860
  -0.000001559   1.891331698   0.000000935
  -0.048408505  -0.000000255   1.905687674

