&control
    calculation = 'scf'
    restart_mode = 'from_scratch'
    tprnfor = .true.
    outdir = './'
    pseudo_dir = '<path-to-ONCV-SG15-PBE-Pseudopotentials>'
    prefix = 'atoms'
    wf_collect = .false.
    forc_conv_thr = 3d-4
    verbosity = 'high'
/

&system
    ibrav=2, celldm(1)=LAT_PARAM, nat=1, nspin=2, ntyp=1, ecutwfc=200.0, ecutrho=900, nbnd=40, input_dft='FUNC'
    starting_magnetization = 0.65
    occupations = 'smearing'
    degauss = 0.005 
    smearing = 'gaussian' 
/

&electrons
    diagonalization = 'david'
    mixing_beta = 0.4d0
    conv_thr = 1.0d-8
/
 &ions
 /
 &cell
    cell_dynamics='bfgs'
 /
ATOMIC_SPECIES
Ni 58.69 Ni_pbe.UPF
ATOMIC_POSITIONS crystal
Ni 0.000 0.000 0.0000
K_POINTS automatic
10 10 10 0 0 0
