&CONTROL
/
&SYSTEM
   ntyp             = 3
   nat              = 6
   ibrav            = 0
/
&ELECTRONS
/
&IONS
/
&CELL
/

ATOMIC_SPECIES
C 12.011 None
F 18.998403163 None
H 1.008 None

K_POINTS gamma

CELL_PARAMETERS angstrom
8.58404420700000 0.00000000000000 0.00000000000000
0.00000000000000 4.74472018600000 0.00000000000000
0.00000000000000 0.00000000000000 2.57461928800000

ATOMIC_POSITIONS angstrom
C 2.1460110517 2.6421791534 0.0000000000 
C 2.1460110517 1.8143877167 1.2873096440 
F 3.2475374336 3.4856709290 0.0000000000 
F 1.0444846699 3.4856709290 0.0000000000 
H 3.0338160762 1.1660906858 1.2873096440 
H 1.2582060273 1.1660906858 1.2873096440 

