&CONTROL
/
&SYSTEM
   ntyp             = 3
   nat              = 6
   ibrav            = 0
/
&ELECTRONS
/
&IONS
/
&CELL
/

ATOMIC_SPECIES
C 12.011 None
F 18.998403163 None
H 1.008 None

K_POINTS gamma

CELL_PARAMETERS angstrom
8.58404420700000 0.00000000000000 0.00000000000000
0.00000000000000 4.74472018600000 0.00000000000000
0.00000000000000 0.00000000000000 2.57461928800000

ATOMIC_POSITIONS angstrom
C 6.4380331553 0.2696872374 0.0000000000 
C 6.4380331553 -0.5581045633 1.2873096440 
F 7.5395595594 1.1131786196 0.0000000000 
F 5.3365067511 1.1131786196 0.0000000000 
H 5.5502313798 -1.2064067507 1.2873096440 
H 7.3258349307 -1.2064067507 1.2873096440 

