&control
    calculation = 'vc-relax'
    restart_mode = 'from_scratch'
    tprnfor = .true.
    outdir = './tmp'
    pseudo_dir = '<path-to-ONCV-SG15-PBE-Pseudopotentials>'
    prefix = 'MnBiO3_vc-relax'
    wf_collect = .false.
    tstress = .true.
    forc_conv_thr = 1d-8
    verbosity = 'high'
/

&system
    ibrav=0, nat=20, ntyp=3, ecutwfc=160.0, nbnd=120, input_dft='vdw-df-cx'
    occupations = 'smearing'
    degauss = 0.002
    smearing = 'gaussian'
    nspin=2
    starting_magnetization(1) = 1
/

&electrons
    electron_maxstep = 800
    diagonalization = 'david'
    mixing_beta = 0.35d0
    conv_thr = 1.0d-8
/

&ions
 ion_dynamics = 'bfgs'
 /
&cell
 cell_dynamics = 'bfgs'
 /


ATOMIC_SPECIES
Mn 54.94  Mn_ONCV_PBE-1.0.upf
Bi 209.98 Bi_ONCV_PBE-1.0.upf
O  16.00  O_ONCV_PBE-1.0.upf

CELL_PARAMETERS (angstrom)
   5.495015373  -0.038967399   0.119785816
  -2.711806365   4.779412580  -0.119784851
  -2.810297610   1.649980821   9.082523020

ATOMIC_POSITIONS (crystal)
Mn       0.764875604   0.764875096   0.250000145
Mn       0.235124434   0.235124935   0.749999871
Mn      -0.000000007   0.500000007  -0.000000000
Mn       0.500000009  -0.000000003   0.500000008
Bi       0.908385002   0.643699166   0.625334517
Bi       0.643699133   0.908385523   0.874665966
Bi       0.091614939   0.356300827   0.374665473
Bi       0.356300861   0.091614491   0.125334063
O        0.893151191   0.716522366   0.084699834
O        0.716522485   0.893150412   0.415300291
O        0.106848845   0.283477617   0.915300182
O        0.283477510   0.106849620   0.584699725
O        0.617388026   0.307079815   0.877559193
O        0.307078351   0.617387527   0.622440515
O        0.382611955   0.692920182   0.122440785
O        0.692921578   0.382612456   0.377559501
O        0.816725859   0.114181771   0.658247910
O        0.114182904   0.816726869   0.841752213
O        0.183274132   0.885818148   0.341752081
O        0.885817087   0.183273182   0.158247816

K_POINTS automatic
10 10 6 0 0 0
