&control
	calculation= 'vc-relax',
        pseudo_dir = '<path-to-ONCV-SG15-PBE-Pseudopotentials>'
	outdir= './',
	restart_mode= 'from_scratch',
	!etot_conv_thr= 1.0d-4,
        forc_conv_thr = 1d-8
	tstress= .true.,
	tprnfor= .true., 
        tstress = .true.
        verbosity = 'high'
        nstep = 500
/

&system
	ibrav= 0, nat= 48, ntyp= 3, ecutwfc= 160.0, celldm(1)= 9.37304158,nbnd=100,
	input_dft= 'vdW-DF2', 
        occupations = 'smearing'
        degauss = 0.0002
        smearing = 'gaussian'
/

&electrons
        electron_maxstep = 800
        diagonalization = 'david'
        mixing_beta = 0.35d0
        conv_thr = 1.0d-8
        electron_maxstep = 800
/
 &ions
        ion_dynamics = 'bfgs'
 /
 &cell
        cell_dynamics = 'bfgs'
 /
ATOMIC_SPECIES
F  18.9984032 F_ONCV_PBE-1.0.upf
C  12.0107    C_ONCV_PBE-1.0.upf
H  1.00794    H_ONCV_PBE-1.0.upf

K_POINTS automatic
8 4 4 0 0 0

CELL_PARAMETERS (alat=  9.37304158)
   0.976584776  -0.000000090  -0.016245079
   0.000000157   1.886734270  -0.000000384
  -0.119771632   0.000000523   1.878037452

ATOMIC_POSITIONS (crystal)
C        0.469174896   0.499775918   0.859898867
C        0.555044317   0.376005785   0.766068497
C        0.459192771   0.381731142   0.605496918
C        0.549940480   0.511433967   0.521320152
F        0.450224200   0.245710089   0.816713046
F        0.844567386   0.358136226   0.782233481
F        0.435611780   0.636224516   0.577158992
F        0.838703272   0.530346387   0.546035366
H        0.560042822   0.597480297   0.821543889
H        0.244789602   0.511086752   0.844352048
H        0.537339431   0.285489998   0.557044378
H        0.233771033   0.377141000   0.594819165
C        0.469174955  -0.499775936   1.359898861
C        0.555044444  -0.376005787   1.266068480
C        0.459192842  -0.381731155   1.105496919
C        0.549940550  -0.511433952   1.021320148
F        0.450224425  -0.245710084   1.316713030
F        0.844567522  -0.358136279   1.282233468
F        0.435611920  -0.636224506   1.077159056
F        0.838703355  -0.530346362   1.046035298
H        0.560042906  -0.597480295   1.321543944
H        0.244789649  -0.511086770   1.344351983
H        0.537339619  -0.285489990   1.057044350
H        0.233771165  -0.377140964   1.094819167
C        0.969052975   0.999541255   0.860573020
C        1.055494978   0.876022410   0.766575746
C        0.959321287   0.881942653   0.606087608
C        1.050906546   1.011463556   0.521881802
F        0.951419990   0.745512537   0.817121080
F        1.345062606   0.858411671   0.782557826
F        0.938503964   1.136592619   0.578015460
F        1.339987556   1.029558569   0.546070772
H        1.058791224   1.097475964   0.822060533
H        0.744536327   1.010303871   0.845338939
H        1.036651226   0.785579642   0.557508797
H        0.733868223   0.877778085   0.595523722
C        0.969053021   0.000458716   1.360573007
C        1.055495053   0.123977604   1.266575721
C        0.959321266   0.118057311   1.106087618
C        1.050906600  -0.011463539   1.021881799
F        0.951420098   0.254487466   1.317121054
F        1.345062677   0.141588307   1.282557822
F        0.938504030  -0.136592605   1.078015517
F        1.339987615  -0.029558564   1.046070732
H        1.058791278  -0.097475953   1.322060575
H        0.744536349  -0.010303901   1.345338879
H        1.036651415   0.214420379   1.057508758
H        0.733868354   0.122221953   1.095523707
