&control
	calculation= 'vc-relax',
        pseudo_dir = '<path-to-ONCV-SG15-PBE-Pseudopotentials>'
	outdir = './',
	restart_mode= 'from_scratch',
        forc_conv_thr = 1d-8
	tstress= .true.,
	tprnfor= .true., 
        tstress = .true.
        verbosity = 'high'
        nstep = 500
	/
&system
	ibrav= 0, nat= 48, ntyp= 3, ecutwfc= 160.0, ecutrho= 800.0, celldm(1)= 9.37304158,nbnd=100,
	input_dft= 'vdW-DF-cx', 
        occupations = 'smearing'
        degauss = 0.0002
        smearing = 'gaussian'
/
&electrons
        electron_maxstep = 800
        diagonalization = 'david'
        mixing_beta = 0.35d0
        conv_thr = 1.0d-8
        electron_maxstep = 800
/
 &ions
        ion_dynamics = 'bfgs'
 /
 &cell
        cell_dynamics = 'bfgs'
 /

ATOMIC_SPECIES
F  18.9984032 F_ONCV_PBE-1.0.upf
C  12.0107    C_ONCV_PBE-1.0.upf
H  1.00794    H_ONCV_PBE-1.0.upf

K_POINTS automatic
8 4 4 0 0 0 


CELL_PARAMETERS (alat=  9.37304158)
   1.014128401  -0.000055383   0.025543278
  -0.000092371   1.931502614  -0.000028939
  -0.048676540  -0.000026674   1.877467508

ATOMIC_POSITIONS (crystal)
C        0.472141838   0.506317613   0.187563920
C        0.550952967   0.622360681   0.289955946
C        0.455128234   0.603868203   0.444064766
C        0.559783738   0.480678384   0.531426644
F        0.444459264   0.748510567   0.244175172
F        0.823694694   0.642813179   0.288808051
F        0.471845219   0.357455602   0.472341823
F        0.834897938   0.476047917   0.523607161
H        0.551062288   0.407642867   0.229960853
H        0.253889964   0.498560408   0.189614998
H        0.505482883   0.700583320   0.501537131
H        0.237392817   0.594693315   0.441169152
C        0.472123497   1.493737593  -0.312427304
C        0.550943656   1.377690021  -0.210052963
C        0.455162401   1.396180431  -0.055937780
C        0.559826714   1.519381803   0.031424775
F        0.444463650   1.251524084  -0.255831143
F        0.823690255   1.357285848  -0.211222193
F        0.471869683   1.642599375  -0.027641232
F        0.834937717   1.524051475   0.023595545
H        0.551081044   1.592405301  -0.270019853
H        0.253880515   1.501513325  -0.310345342
H        0.505559279   1.299468981   0.001530522
H        0.237433129   1.405342557  -0.058803209
C        0.975630742   0.993641573   0.812473514
C        1.054163812   0.877663004   0.710061265
C        0.958683525   0.896255685   0.555834544
C        1.062578908   1.019758016   0.468748019
F        0.947584758   0.751464166   0.755572113
F        1.326976122   0.857266404   0.711446619
F        0.973726526   1.142800553   0.527691032
F        1.337674731   1.024883513   0.476937211
H        1.055919176   1.092139544   0.770461341
H        0.757500892   1.002067220   0.809902355
H        1.010303604   0.799817735   0.498263479
H        0.740858622   0.904746628   0.558283429
C        0.975509850   0.006310623   1.312453177
C        1.053989933   0.122315535   1.210049253
C        0.958459081   0.103797301   1.055826113
C        1.062584736  -0.019679553   0.968786775
F        0.947737620   0.248536366   1.255655945
F        1.326859219   0.142581583   1.211361298
F        0.973729040  -0.142715674   1.027776806
F        1.337668890  -0.024733211   0.977065941
H        1.056108963  -0.092121276   1.270480732
H        0.757397485  -0.002331275   1.309851185
H        1.010011796   0.200294972   0.998324272
H        0.740638584   0.095237624   1.058198138
